Set parameter WLSAccessID
Set parameter WLSSecret
Set parameter LicenseID to value 2604445
Academic license 2604445 - for non-commercial use only - registered to an___@um.edu.mt
Set parameter Seed to value 23
Set parameter TimeLimit to value 1800
Gurobi Optimizer version 12.0.2 build v12.0.2rc0 (linux64 - "Ubuntu 22.04.5 LTS")

CPU model: Intel(R) Core(TM) i5-10400 CPU @ 2.90GHz, instruction set [SSE2|AVX|AVX2]
Thread count: 6 physical cores, 12 logical processors, using up to 12 threads

Non-default parameters:
TimeLimit  1800
Seed  23

Academic license 2604445 - for non-commercial use only - registered to an___@um.edu.mt
Optimize a model with 5865824 rows, 101848 columns and 12081824 nonzeros
Model fingerprint: 0x9fff31ba
Variable types: 0 continuous, 101848 integer (80864 binary)
Coefficient statistics:
  Matrix range     [1e+00, 7e+01]
  Objective range  [5e-08, 1e-02]
  Bounds range     [1e+00, 3e+02]
  RHS range        [1e+00, 7e+01]
Presolve removed 32599 rows and 28563 columns (presolve time = 5s)...
Presolve removed 33799 rows and 28563 columns (presolve time = 10s)...
Presolve removed 35916 rows and 28580 columns (presolve time = 15s)...
Presolve removed 35916 rows and 28580 columns (presolve time = 21s)...
Presolve removed 35916 rows and 28580 columns (presolve time = 25s)...
Presolve removed 35916 rows and 28580 columns (presolve time = 30s)...
Presolve removed 35916 rows and 28580 columns
Presolve time: 31.51s
Presolved: 5829908 rows, 73268 columns, 11939288 nonzeros
Variable types: 0 continuous, 73268 integer (54608 binary)
Deterministic concurrent LP optimizer: primal simplex, dual simplex, and barrier
Showing barrier log only...

Root barrier log...

Ordering time: 0.03s

Barrier statistics:
 Dense cols : 4
 Free vars  : 221
 AA' NZ     : 5.403e+04
 Factor NZ  : 8.056e+04 (roughly 40 MB of memory)
 Factor Ops : 1.352e+07 (less than 1 second per iteration)
 Threads    : 3

                  Objective                Residual
Iter       Primal          Dual         Primal    Dual     Compl     Time
   0  -6.80918919e+05  5.00000000e+00  3.88e-01 7.10e+01  1.74e+01    77s
   1  -2.56534495e+05  4.62550371e+00  2.95e-04 2.80e+01  3.69e+00    77s
   2  -2.47238463e+04  1.67118491e+00  6.42e-09 1.03e+00  2.55e-01    77s

Barrier performed 2 iterations in 76.77 seconds (57.82 work units)
Barrier solve interrupted - model solved by another algorithm

Concurrent spin time: 0.14s (can be avoided by choosing Method=3)

Solved with dual simplex

Root simplex log...

Iteration    Objective       Primal Inf.    Dual Inf.      Time
    1712    1.7313083e-03   0.000000e+00   0.000000e+00     77s

Root simplex log...

Iteration    Objective       Primal Inf.    Dual Inf.      Time
    1712    1.7313083e-03   0.000000e+00   0.000000e+00     77s

Use crossover to convert LP symmetric solution to basic solution...

Root crossover log...

    3032 DPushes remaining with DInf 0.0000000e+00                82s
     532 DPushes remaining with DInf 0.0000000e+00                85s
       0 DPushes remaining with DInf 0.0000000e+00                86s

   25030 PPushes remaining with PInf 0.0000000e+00                87s
   20576 PPushes remaining with PInf 0.0000000e+00                90s
   11065 PPushes remaining with PInf 0.0000000e+00               121s
    6004 PPushes remaining with PInf 0.0000000e+00               129s
    3501 PPushes remaining with PInf 0.0000000e+00               131s
       0 PPushes remaining with PInf 0.0000000e+00               134s

  Push phase complete: Pinf 0.0000000e+00, Dinf 4.2593449e-18    134s


Root simplex log...

Iteration    Objective       Primal Inf.    Dual Inf.      Time
   29504    1.7313083e-03   0.000000e+00   0.000000e+00    136s
   29504    1.7313083e-03   0.000000e+00   0.000000e+00    138s

Root relaxation: objective 1.731308e-03, 29504 iterations, 82.75 seconds (99.79 work units)
Total elapsed time = 221.34s (DegenMoves)
Total elapsed time = 234.98s (DegenMoves)
Total elapsed time = 246.66s (DegenMoves)
Total elapsed time = 254.66s (DegenMoves)

    Nodes    |    Current Node    |     Objective Bounds      |     Work
 Expl Unexpl |  Obj  Depth IntInf | Incumbent    BestBd   Gap | It/Node Time

     0     0    0.00173    0 1273          -    0.00173      -     -  274s
H    0     0                       5.0048424    0.00173   100%     -  395s
     0     0    0.00195    0 1945    5.00484    0.00195   100%     -  440s
H    0     0                       4.2344935    0.00195   100%     -  467s
H    0     0                       3.5946359    0.00195   100%     -  478s
H    0     0                       3.3912501    0.00195   100%     -  479s
     0     0    0.00195    0 1941    3.39125    0.00195   100%     -  488s
     0     0    0.00197    0 2024    3.39125    0.00197   100%     -  557s
H    0     0                       3.3912476    0.00197   100%     -  575s
H    0     0                       3.0421146    0.00197   100%     -  596s
H    0     0                       3.0130385    0.00197   100%     -  597s
     0     0    0.00197    0 1814    3.01304    0.00197   100%     -  610s
     0     0    0.00199    0 2027    3.01304    0.00199   100%     -  682s
H    0     0                       2.9985065    0.00199   100%     -  712s
     0     0    0.00199    0 1868    2.99851    0.00199   100%     -  725s
     0     0    0.00199    0 2560    2.99851    0.00199   100%     -  808s
H    0     0                       2.9979562    0.00199   100%     -  835s
H    0     0                       2.9834206    0.00199   100%     -  835s
     0     0    0.00199    0 2090    2.98342    0.00199   100%     -  847s
     0     0    0.00199    0 2236    2.98342    0.00199   100%     -  939s
H    0     0                       2.8670890    0.00199   100%     -  968s
H    0     0                       2.8380522    0.00199   100%     -  968s
     0     0    0.00200    0 1965    2.83805    0.00200   100%     -  993s
     0     0    0.00201    0 2113    2.83805    0.00201   100%     - 1095s
H    0     0                       2.8379594    0.00201   100%     - 1122s
     0     0    0.00201    0 2122    2.83796    0.00201   100%     - 1143s
     0     0    0.00201    0 2830    2.83796    0.00201   100%     - 1250s
H    0     0                       2.6926554    0.00201   100%     - 1298s
     0     0    0.00201    0 2485    2.69266    0.00201   100%     - 1322s
     0     0    0.00201    0 2712    2.69266    0.00201   100%     - 1482s
H    0     0                       2.5906630    0.00201   100%     - 1513s
H    0     0                       2.5906599    0.00201   100%     - 1514s
H    0     0                       2.5906091    0.00201   100%     - 1514s
H    0     0                       2.5905998    0.00201   100%     - 1514s
     0     0    0.00201    0 2557    2.59060    0.00201   100%     - 1553s
     0     0    0.00201    0 2633    2.59060    0.00201   100%     - 1711s
H    0     0                       2.5324104    0.00201   100%     - 1737s
H    0     0                       2.5324079    0.00201   100%     - 1737s
     0     0    0.00201    0 2703    2.53241    0.00201   100%     - 1754s
     0     0          -    0         2.53241    0.00201   100%     - 1800s

Cutting planes:
  Gomory: 589
  Cover: 2534
  Implied bound: 5845
  Clique: 3179
  MIR: 10849
  StrongCG: 307
  Zero half: 2975
  RLT: 453
  Relax-and-lift: 3917

Explored 1 nodes (303753 simplex iterations) in 1800.33 seconds (2312.85 work units)
Thread count was 12 (of 12 available processors)

Solution count 10: 2.53241 2.53241 2.5906 ... 2.86709

Time limit reached
Best objective 2.532407877377e+00, best bound 2.013730325115e-03, gap 99.9205%
Objective Function at this solution: [[0, 1, 19], [0, 4, 15], [0, 25, 31], [1, 2, 19], [2, 22, 19], [3, 4, 1], [3, 4, 12], [3, 4, 14], [3, 4, 27], [3, 4, 35], [3, 4, 36], [3, 4, 42], [4, 5, 1], [4, 5, 12], [4, 5, 14], [4, 5, 15], [4, 5, 27], [4, 5, 35], [4, 5, 36], [4, 5, 42], [5, 6, 1], [5, 6, 4], [5, 6, 12], [5, 6, 14], [5, 6, 15], [5, 6, 27], [5, 6, 36], [5, 6, 42], [5, 75, 2], [5, 75, 3], [5, 75, 6], [5, 75, 7], [5, 75, 8], [5, 75, 9], [5, 75, 10], [5, 75, 13], [5, 75, 18], [5, 75, 20], [5, 75, 21], [5, 75, 25], [5, 75, 30], [5, 75, 33], [5, 75, 35], [5, 75, 39], [5, 75, 41], [6, 7, 15], [6, 20, 1], [6, 20, 2], [6, 20, 3], [6, 20, 4], [6, 20, 6], [6, 20, 7], [6, 20, 8], [6, 20, 9], [6, 20, 10], [6, 20, 12], [6, 20, 13], [6, 20, 14], [6, 20, 18], [6, 20, 20], [6, 20, 21], [6, 20, 25], [6, 20, 27], [6, 20, 30], [6, 20, 31], [6, 20, 33], [6, 20, 36], [6, 20, 39], [6, 20, 41], [6, 20, 42], [6, 76, 35], [7, 9, 40], [7, 77, 26], [7, 124, 31], [8, 120, 26], [9, 7, 59], [9, 79, 26], [9, 79, 40], [20, 21, 2], [20, 21, 3], [20, 21, 7], [20, 21, 8], [20, 21, 9], [20, 21, 10], [20, 21, 12], [20, 21, 14], [20, 21, 18], [20, 21, 20], [20, 21, 21], [20, 21, 25], [20, 21, 27], [20, 21, 30], [20, 21, 31], [20, 21, 33], [20, 21, 39], [20, 21, 41], [20, 21, 42], [20, 129, 1], [20, 129, 4], [20, 129, 6], [20, 129, 13], [20, 129, 36], [21, 0, 31], [21, 2, 2], [21, 2, 3], [21, 2, 7], [21, 2, 8], [21, 2, 9], [21, 2, 10], [21, 2, 12], [21, 2, 14], [21, 2, 18], [21, 2, 20], [21, 2, 21], [21, 2, 25], [21, 2, 27], [21, 2, 30], [21, 2, 33], [21, 2, 39], [21, 2, 41], [21, 2, 42], [22, 152, 19], [25, 26, 15], [26, 0, 15], [27, 74, 4], [28, 27, 4], [29, 28, 4], [30, 29, 4], [31, 30, 4], [32, 31, 4], [33, 32, 4], [34, 33, 4], [35, 34, 4], [35, 36, 29], [35, 36, 48], [36, 37, 29], [36, 37, 48], [37, 38, 29], [37, 38, 48], [38, 114, 29], [38, 125, 48], [39, 113, 29], [41, 115, 19], [49, 237, 38], [49, 237, 57], [50, 295, 38], [51, 180, 54], [51, 321, 58], [51, 337, 38], [52, 332, 17], [52, 332, 26], [52, 332, 40], [58, 187, 17], [60, 61, 59], [61, 62, 59], [62, 63, 59], [63, 64, 59], [64, 65, 59], [65, 66, 59], [66, 9, 59], [68, 213, 37], [68, 213, 43], [69, 70, 37], [69, 70, 43], [70, 71, 22], [70, 71, 24], [70, 71, 32], [70, 71, 34], [70, 71, 37], [70, 71, 43], [71, 72, 22], [71, 72, 24], [71, 72, 32], [71, 72, 34], [71, 72, 37], [71, 72, 43], [72, 73, 22], [72, 73, 24], [72, 73, 32], [72, 73, 34], [72, 73, 37], [72, 73, 43], [74, 5, 4], [75, 6, 2], [75, 6, 3], [75, 6, 6], [75, 6, 7], [75, 6, 8], [75, 6, 9], [75, 6, 10], [75, 6, 13], [75, 6, 18], [75, 6, 20], [75, 6, 21], [75, 6, 25], [75, 6, 30], [75, 6, 33], [75, 6, 35], [75, 6, 39], [75, 6, 41], [76, 7, 35], [77, 8, 26], [79, 52, 40], [79, 185, 26], [105, 68, 37], [106, 107, 22], [106, 107, 34], [107, 118, 22], [107, 118, 24], [107, 118, 32], [107, 118, 34], [109, 155, 19], [110, 111, 19], [111, 112, 19], [112, 41, 19], [113, 119, 4], [113, 119, 29], [113, 119, 48], [114, 39, 29], [115, 116, 19], [116, 117, 19], [117, 109, 19], [118, 70, 22], [118, 70, 24], [118, 70, 32], [118, 70, 34], [119, 35, 4], [119, 35, 29], [119, 35, 48], [120, 9, 26], [124, 6, 31], [126, 127, 34], [126, 127, 43], [127, 68, 43], [127, 106, 22], [127, 106, 34], [127, 197, 24], [127, 197, 32], [128, 5, 2], [128, 5, 3], [128, 5, 6], [128, 5, 7], [128, 5, 8], [128, 5, 9], [128, 5, 10], [128, 5, 13], [128, 5, 18], [128, 5, 20], [128, 5, 21], [128, 5, 25], [128, 5, 30], [128, 5, 33], [128, 5, 39], [128, 5, 41], [129, 130, 1], [129, 130, 4], [129, 130, 6], [129, 130, 13], [129, 130, 36], [152, 153, 19], [153, 110, 19], [154, 127, 32], [155, 0, 19], [165, 270, 23], [165, 270, 28], [165, 270, 44], [165, 270, 55], [166, 165, 11], [166, 165, 23], [166, 165, 28], [166, 165, 44], [172, 173, 47], [172, 173, 53], [173, 235, 45], [173, 235, 46], [173, 235, 47], [173, 235, 51], [173, 235, 52], [173, 235, 53], [177, 178, 38], [178, 179, 38], [178, 179, 57], [178, 266, 54], [179, 180, 38], [179, 335, 57], [180, 51, 38], [180, 189, 54], [185, 52, 26], [186, 58, 17], [187, 188, 17], [188, 52, 17], [189, 178, 54], [196, 127, 24], [197, 107, 24], [197, 107, 32], [208, 209, 45], [208, 209, 46], [208, 209, 47], [208, 209, 51], [208, 209, 52], [208, 209, 53], [209, 172, 47], [209, 172, 53], [209, 210, 45], [209, 210, 46], [209, 210, 51], [209, 210, 52], [210, 173, 45], [210, 173, 46], [210, 173, 51], [210, 173, 52], [211, 178, 57], [213, 214, 37], [213, 214, 43], [214, 215, 43], [214, 280, 37], [215, 229, 43], [229, 230, 37], [229, 230, 43], [230, 69, 37], [230, 69, 43], [231, 127, 22], [233, 208, 45], [233, 208, 46], [233, 208, 47], [233, 208, 51], [233, 208, 52], [233, 208, 53], [234, 105, 37], [235, 236, 45], [235, 236, 46], [235, 236, 47], [235, 236, 51], [235, 236, 52], [235, 236, 53], [236, 237, 45], [236, 237, 46], [236, 237, 47], [236, 237, 51], [236, 237, 52], [236, 237, 53], [237, 238, 38], [237, 238, 45], [237, 238, 46], [237, 238, 47], [237, 238, 51], [237, 238, 52], [237, 238, 53], [237, 238, 57], [238, 239, 38], [238, 239, 45], [238, 239, 46], [238, 239, 47], [238, 239, 51], [238, 239, 52], [238, 239, 53], [238, 239, 57], [239, 240, 57], [239, 255, 38], [239, 255, 45], [239, 255, 46], [239, 255, 47], [239, 255, 51], [239, 255, 52], [239, 255, 53], [240, 241, 57], [241, 242, 57], [242, 243, 57], [246, 247, 50], [247, 248, 5], [247, 248, 16], [247, 248, 50], [248, 249, 5], [248, 249, 16], [248, 249, 50], [249, 250, 16], [249, 250, 50], [249, 254, 5], [254, 253, 5], [255, 303, 5], [255, 303, 16], [255, 303, 50], [261, 262, 38], [261, 262, 57], [262, 263, 38], [262, 263, 57], [263, 177, 38], [263, 211, 57], [265, 60, 59], [266, 267, 54], [267, 287, 54], [270, 165, 56], [270, 271, 28], [270, 271, 44], [270, 271, 55], [270, 313, 23], [271, 272, 28], [271, 272, 44], [271, 272, 55], [272, 273, 49], [272, 273, 55], [272, 273, 60], [272, 279, 11], [272, 279, 28], [272, 279, 44], [272, 279, 56], [273, 274, 49], [273, 274, 55], [273, 274, 60], [274, 275, 49], [274, 275, 55], [274, 275, 60], [275, 276, 49], [275, 276, 55], [275, 276, 60], [276, 277, 11], [276, 277, 49], [276, 277, 56], [276, 277, 60], [277, 278, 11], [277, 278, 49], [277, 278, 56], [277, 278, 60], [278, 272, 11], [278, 272, 49], [278, 272, 56], [278, 272, 60], [279, 270, 56], [279, 340, 11], [279, 340, 28], [279, 340, 44], [280, 229, 37], [287, 288, 54], [288, 289, 58], [288, 338, 38], [288, 338, 57], [289, 290, 58], [290, 291, 58], [291, 292, 58], [292, 293, 58], [293, 294, 38], [293, 294, 58], [294, 50, 38], [294, 51, 58], [295, 49, 38], [295, 49, 57], [296, 295, 57], [297, 296, 57], [302, 246, 50], [302, 247, 5], [302, 247, 16], [303, 304, 5], [303, 304, 16], [303, 304, 50], [304, 302, 5], [304, 302, 16], [304, 302, 50], [307, 51, 54], [308, 261, 38], [308, 261, 57], [313, 314, 23], [314, 315, 23], [315, 342, 23], [321, 322, 58], [322, 307, 58], [332, 333, 17], [332, 333, 26], [332, 333, 40], [333, 334, 17], [333, 334, 26], [333, 334, 40], [334, 59, 17], [334, 59, 26], [334, 59, 40], [335, 297, 57], [337, 293, 38], [338, 308, 38], [338, 308, 57], [340, 343, 11], [340, 343, 23], [340, 343, 28], [340, 343, 44], [342, 340, 23], [343, 166, 11], [343, 166, 23], [343, 166, 28], [343, 166, 44]]
List of All Routes is {'Route_1': [3, 4, 5, 6, 20, 129, 130], 'Route_1_1': [130, 129, 20, 6, 5, 4, 3], 'Route_2': [128, 5, 75, 6, 20, 21, 2], 'Route_2_1': [2, 21, 20, 6, 75, 5, 128], 'Route_3': [128, 5, 75, 6, 20, 21, 2], 'Route_3_1': [2, 21, 20, 6, 75, 5, 128], 'Route_4': [113, 119, 35, 34, 33, 32, 31, 30, 29, 28, 27, 74, 5, 6, 20, 129, 130], 'Route_4_1': [130, 129, 20, 6, 5, 74, 27, 28, 29, 30, 31, 32, 33, 34, 35, 119, 113], 'Route_5': [255, 303, 304, 302, 247, 248, 249, 254, 253], 'Route_5_1': [253, 254, 249, 248, 247, 302, 304, 303, 255], 'Route_6': [128, 5, 75, 6, 20, 129, 130], 'Route_6_1': [130, 129, 20, 6, 75, 5, 128], 'Route_7': [128, 5, 75, 6, 20, 21, 2], 'Route_7_1': [2, 21, 20, 6, 75, 5, 128], 'Route_8': [128, 5, 75, 6, 20, 21, 2], 'Route_8_1': [2, 21, 20, 6, 75, 5, 128], 'Route_9': [128, 5, 75, 6, 20, 21, 2], 'Route_9_1': [2, 21, 20, 6, 75, 5, 128], 'Route_10': [128, 5, 75, 6, 20, 21, 2], 'Route_10_1': [2, 21, 20, 6, 75, 5, 128], 'Route_11': [276, 277, 278, 272, 279, 340, 343, 166, 165], 'Route_11_1': [165, 166, 343, 340, 279, 272, 278, 277, 276], 'Route_12': [3, 4, 5, 6, 20, 21, 2], 'Route_12_1': [2, 21, 20, 6, 5, 4, 3], 'Route_13': [128, 5, 75, 6, 20, 129, 130], 'Route_13_1': [130, 129, 20, 6, 75, 5, 128], 'Route_14': [3, 4, 5, 6, 20, 21, 2], 'Route_14_1': [2, 21, 20, 6, 5, 4, 3], 'Route_15': [25, 26, 0, 4, 5, 6, 7], 'Route_15_1': [7, 6, 5, 4, 0, 26, 25], 'Route_16': [255, 303, 304, 302, 247, 248, 249, 250], 'Route_16_1': [250, 249, 248, 247, 302, 304, 303, 255], 'Route_17': [186, 58, 187, 188, 52, 332, 333, 334, 59], 'Route_17_1': [59, 334, 333, 332, 52, 188, 187, 58, 186], 'Route_18': [128, 5, 75, 6, 20, 21, 2], 'Route_18_1': [2, 21, 20, 6, 75, 5, 128], 'Route_19': [2, 22, 152, 153, 110, 111, 112, 41, 115, 116, 117, 109, 155, 0, 1, 2], 'Route_20': [128, 5, 75, 6, 20, 21, 2], 'Route_20_1': [2, 21, 20, 6, 75, 5, 128], 'Route_21': [128, 5, 75, 6, 20, 21, 2], 'Route_21_1': [2, 21, 20, 6, 75, 5, 128], 'Route_22': [231, 127, 106, 107, 118, 70, 71, 72, 73], 'Route_22_1': [73, 72, 71, 70, 118, 107, 106, 127, 231], 'Route_23': [165, 270, 313, 314, 315, 342, 340, 343, 166, 165], 'Route_24': [196, 127, 197, 107, 118, 70, 71, 72, 73], 'Route_24_1': [73, 72, 71, 70, 118, 107, 197, 127, 196], 'Route_25': [128, 5, 75, 6, 20, 21, 2], 'Route_25_1': [2, 21, 20, 6, 75, 5, 128], 'Route_26': [7, 77, 8, 120, 9, 79, 185, 52, 332, 333, 334, 59], 'Route_26_1': [59, 334, 333, 332, 52, 185, 79, 9, 120, 8, 77, 7], 'Route_27': [3, 4, 5, 6, 20, 21, 2], 'Route_27_1': [2, 21, 20, 6, 5, 4, 3], 'Route_28': [165, 270, 271, 272, 279, 340, 343, 166, 165], 'Route_29': [113, 119, 35, 36, 37, 38, 114, 39, 113], 'Route_30': [128, 5, 75, 6, 20, 21, 2], 'Route_30_1': [2, 21, 20, 6, 75, 5, 128], 'Route_31': [7, 124, 6, 20, 21, 0, 25], 'Route_31_1': [25, 0, 21, 20, 6, 124, 7], 'Route_32': [154, 127, 197, 107, 118, 70, 71, 72, 73], 'Route_32_1': [73, 72, 71, 70, 118, 107, 197, 127, 154], 'Route_33': [128, 5, 75, 6, 20, 21, 2], 'Route_33_1': [2, 21, 20, 6, 75, 5, 128], 'Route_34': [126, 127, 106, 107, 118, 70, 71, 72, 73], 'Route_34_1': [73, 72, 71, 70, 118, 107, 106, 127, 126], 'Route_35': [3, 4, 5, 75, 6, 76, 7], 'Route_35_1': [7, 76, 6, 75, 5, 4, 3], 'Route_36': [3, 4, 5, 6, 20, 129, 130], 'Route_36_1': [130, 129, 20, 6, 5, 4, 3], 'Route_37': [234, 105, 68, 213, 214, 280, 229, 230, 69, 70, 71, 72, 73], 'Route_37_1': [73, 72, 71, 70, 69, 230, 229, 280, 214, 213, 68, 105, 234], 'Route_38': [288, 338, 308, 261, 262, 263, 177, 178, 179, 180, 51, 337, 293, 294, 50, 295, 49, 237, 238, 239, 255], 'Route_38_1': [255, 239, 238, 237, 49, 295, 50, 294, 293, 337, 51, 180, 179, 178, 177, 263, 262, 261, 308, 338, 288], 'Route_39': [128, 5, 75, 6, 20, 21, 2], 'Route_39_1': [2, 21, 20, 6, 75, 5, 128], 'Route_40': [7, 9, 79, 52, 332, 333, 334, 59], 'Route_40_1': [59, 334, 333, 332, 52, 79, 9, 7], 'Route_41': [128, 5, 75, 6, 20, 21, 2], 'Route_41_1': [2, 21, 20, 6, 75, 5, 128], 'Route_42': [3, 4, 5, 6, 20, 21, 2], 'Route_42_1': [2, 21, 20, 6, 5, 4, 3], 'Route_43': [126, 127, 68, 213, 214, 215, 229, 230, 69, 70, 71, 72, 73], 'Route_43_1': [73, 72, 71, 70, 69, 230, 229, 215, 214, 213, 68, 127, 126], 'Route_44': [165, 270, 271, 272, 279, 340, 343, 166, 165], 'Route_45': [233, 208, 209, 210, 173, 235, 236, 237, 238, 239, 255], 'Route_45_1': [255, 239, 238, 237, 236, 235, 173, 210, 209, 208, 233], 'Route_46': [233, 208, 209, 210, 173, 235, 236, 237, 238, 239, 255], 'Route_46_1': [255, 239, 238, 237, 236, 235, 173, 210, 209, 208, 233], 'Route_47': [233, 208, 209, 172, 173, 235, 236, 237, 238, 239, 255], 'Route_47_1': [255, 239, 238, 237, 236, 235, 173, 172, 209, 208, 233], 'Route_48': [113, 119, 35, 36, 37, 38, 125], 'Route_48_1': [125, 38, 37, 36, 35, 119, 113], 'Route_49': [276, 277, 278, 272, 273, 274, 275, 276], 'Route_50': [255, 303, 304, 302, 246, 247, 248, 249, 250], 'Route_50_1': [250, 249, 248, 247, 246, 302, 304, 303, 255], 'Route_51': [233, 208, 209, 210, 173, 235, 236, 237, 238, 239, 255], 'Route_51_1': [255, 239, 238, 237, 236, 235, 173, 210, 209, 208, 233], 'Route_52': [233, 208, 209, 210, 173, 235, 236, 237, 238, 239, 255], 'Route_52_1': [255, 239, 238, 237, 236, 235, 173, 210, 209, 208, 233], 'Route_53': [233, 208, 209, 172, 173, 235, 236, 237, 238, 239, 255], 'Route_53_1': [255, 239, 238, 237, 236, 235, 173, 172, 209, 208, 233], 'Route_54': [307, 51, 180, 189, 178, 266, 267, 287, 288], 'Route_54_1': [288, 287, 267, 266, 178, 189, 180, 51, 307], 'Route_55': [165, 270, 271, 272, 273, 274, 275, 276], 'Route_55_1': [276, 275, 274, 273, 272, 271, 270, 165], 'Route_56': [276, 277, 278, 272, 279, 270, 165], 'Route_56_1': [165, 270, 279, 272, 278, 277, 276], 'Route_57': [288, 338, 308, 261, 262, 263, 211, 178, 179, 335, 297, 296, 295, 49, 237, 238, 239, 240, 241, 242, 243], 'Route_57_1': [243, 242, 241, 240, 239, 238, 237, 49, 295, 296, 297, 335, 179, 178, 211, 263, 262, 261, 308, 338, 288], 'Route_58': [288, 289, 290, 291, 292, 293, 294, 51, 321, 322, 307], 'Route_58_1': [307, 322, 321, 51, 294, 293, 292, 291, 290, 289, 288], 'Route_59': [265, 60, 61, 62, 63, 64, 65, 66, 9, 7], 'Route_59_1': [7, 9, 66, 65, 64, 63, 62, 61, 60, 265], 'Route_60': [276, 277, 278, 272, 273, 274, 275, 276]}
